logs/full/max/full-06-30-0.lp
\ LP format - for model browsing. Use MPS format to capture full model detail.
Maximize
  x0,1_4 + x0,1_11 + x0,1_13 + x0,1_20 + x0,1_24 + x0,1_28 + x0,1_33
   + x0,1_35 + x0,1_37 + x0,1_39 + x0,1_48 + x0,1_59 + x0,1_61 + x0,1_72
   + x0,2_4 + x0,2_11 + x0,2_13 + x0,2_20 + x0,2_24 + x0,2_28 + x0,2_33
   + x0,2_35 + x0,2_37 + x0,2_39 + x0,2_48 + x0,2_59 + x0,2_61 + x0,2_72
   + x0,3_4 + x0,3_11 + x0,3_13 + x0,3_20 + x0,3_24 + x0,3_28 + x0,3_33
   + x0,3_35 + x0,3_37 + x0,3_39 + x0,3_48 + x0,3_59 + x0,3_61 + x0,3_72
   + x0,4_4 + x0,4_11 + x0,4_13 + x0,4_20 + x0,4_24 + x0,4_28 + x0,4_33
   + x0,4_35 + x0,4_37 + x0,4_39 + x0,4_48 + x0,4_59 + x0,4_61 + x0,4_72
   + x0,5_4 + x0,5_11 + x0,5_13 + x0,5_20 + x0,5_24 + x0,5_28 + x0,5_33
   + x0,5_35 + x0,5_37 + x0,5_39 + x0,5_48 + x0,5_59 + x0,5_61 + x0,5_72
   + x0,6_4 + x0,6_11 + x0,6_13 + x0,6_20 + x0,6_24 + x0,6_28 + x0,6_33
   + x0,6_35 + x0,6_37 + x0,6_39 + x0,6_48 + x0,6_59 + x0,6_61 + x0,6_72
   + x1,2_4 + x1,2_11 + x1,2_13 + x1,2_20 + x1,2_24 + x1,2_28 + x1,2_33
   + x1,2_35 + x1,2_37 + x1,2_39 + x1,2_48 + x1,2_59 + x1,2_61 + x1,2_72
   + x1,3_4 + x1,3_11 + x1,3_13 + x1,3_20 + x1,3_24 + x1,3_28 + x1,3_33
   + x1,3_35 + x1,3_37 + x1,3_39 + x1,3_48 + x1,3_59 + x1,3_61 + x1,3_72
   + x1,4_4 + x1,4_11 + x1,4_13 + x1,4_20 + x1,4_24 + x1,4_28 + x1,4_33
   + x1,4_35 + x1,4_37 + x1,4_39 + x1,4_48 + x1,4_59 + x1,4_61 + x1,4_72
   + x1,5_4 + x1,5_11 + x1,5_13 + x1,5_20 + x1,5_24 + x1,5_28 + x1,5_33
   + x1,5_35 + x1,5_37 + x1,5_39 + x1,5_48 + x1,5_59 + x1,5_61 + x1,5_72
   + x1,6_4 + x1,6_11 + x1,6_13 + x1,6_20 + x1,6_24 + x1,6_28 + x1,6_33
   + x1,6_35 + x1,6_37 + x1,6_39 + x1,6_48 + x1,6_59 + x1,6_61 + x1,6_72
   + x2,3_4 + x2,3_11 + x2,3_13 + x2,3_20 + x2,3_24 + x2,3_28 + x2,3_33
   + x2,3_35 + x2,3_37 + x2,3_39 + x2,3_48 + x2,3_59 + x2,3_61 + x2,3_72
   + x2,4_4 + x2,4_11 + x2,4_13 + x2,4_20 + x2,4_24 + x2,4_28 + x2,4_33
   + x2,4_35 + x2,4_37 + x2,4_39 + x2,4_48 + x2,4_59 + x2,4_61 + x2,4_72
   + x2,5_4 + x2,5_11 + x2,5_13 + x2,5_20 + x2,5_24 + x2,5_28 + x2,5_33
   + x2,5_35 + x2,5_37 + x2,5_39 + x2,5_48 + x2,5_59 + x2,5_61 + x2,5_72
   + x2,6_4 + x2,6_11 + x2,6_13 + x2,6_20 + x2,6_24 + x2,6_28 + x2,6_33
   + x2,6_35 + x2,6_37 + x2,6_39 + x2,6_48 + x2,6_59 + x2,6_61 + x2,6_72
   + x3,4_4 + x3,4_11 + x3,4_13 + x3,4_20 + x3,4_24 + x3,4_28 + x3,4_33
   + x3,4_35 + x3,4_37 + x3,4_39 + x3,4_48 + x3,4_59 + x3,4_61 + x3,4_72
   + x3,5_4 + x3,5_11 + x3,5_13 + x3,5_20 + x3,5_24 + x3,5_28 + x3,5_33
   + x3,5_35 + x3,5_37 + x3,5_39 + x3,5_48 + x3,5_59 + x3,5_61 + x3,5_72
   + x3,6_4 + x3,6_11 + x3,6_13 + x3,6_20 + x3,6_24 + x3,6_28 + x3,6_33
   + x3,6_35 + x3,6_37 + x3,6_39 + x3,6_48 + x3,6_59 + x3,6_61 + x3,6_72
   + x4,5_4 + x4,5_11 + x4,5_13 + x4,5_20 + x4,5_24 + x4,5_28 + x4,5_33
   + x4,5_35 + x4,5_37 + x4,5_39 + x4,5_48 + x4,5_59 + x4,5_61 + x4,5_72
   + x4,6_4 + x4,6_11 + x4,6_13 + x4,6_20 + x4,6_24 + x4,6_28 + x4,6_33
   + x4,6_35 + x4,6_37 + x4,6_39 + x4,6_48 + x4,6_59 + x4,6_61 + x4,6_72
   + x5,6_4 + x5,6_11 + x5,6_13 + x5,6_20 + x5,6_24 + x5,6_28 + x5,6_33
   + x5,6_35 + x5,6_37 + x5,6_39 + x5,6_48 + x5,6_59 + x5,6_61 + x5,6_72
Subject To
 R0: x0,1_4 + x0,2_4 + x0,3_4 + x0,4_4 + x0,5_4 + x0,6_4 + x1,2_4 + x1,3_4
   + x1,4_4 + x1,5_4 + x1,6_4 + x2,3_4 + x2,4_4 + x2,5_4 + x2,6_4 + x3,4_4
   + x3,5_4 + x3,6_4 + x4,5_4 + x4,6_4 + x5,6_4 <= 1
 R1: x0,1_11 + x0,2_11 + x0,3_11 + x0,4_11 + x0,5_11 + x0,6_11 + x1,2_11
   + x1,3_11 + x1,4_11 + x1,5_11 + x1,6_11 + x2,3_11 + x2,4_11 + x2,5_11
   + x2,6_11 + x3,4_11 + x3,5_11 + x3,6_11 + x4,5_11 + x4,6_11 + x5,6_11
   <= 1
 R2: x0,1_13 + x0,2_13 + x0,3_13 + x0,4_13 + x0,5_13 + x0,6_13 + x1,2_13
   + x1,3_13 + x1,4_13 + x1,5_13 + x1,6_13 + x2,3_13 + x2,4_13 + x2,5_13
   + x2,6_13 + x3,4_13 + x3,5_13 + x3,6_13 + x4,5_13 + x4,6_13 + x5,6_13
   <= 1
 R3: x0,1_20 + x0,2_20 + x0,3_20 + x0,4_20 + x0,5_20 + x0,6_20 + x1,2_20
   + x1,3_20 + x1,4_20 + x1,5_20 + x1,6_20 + x2,3_20 + x2,4_20 + x2,5_20
   + x2,6_20 + x3,4_20 + x3,5_20 + x3,6_20 + x4,5_20 + x4,6_20 + x5,6_20
   <= 1
 R4: x0,1_24 + x0,2_24 + x0,3_24 + x0,4_24 + x0,5_24 + x0,6_24 + x1,2_24
   + x1,3_24 + x1,4_24 + x1,5_24 + x1,6_24 + x2,3_24 + x2,4_24 + x2,5_24
   + x2,6_24 + x3,4_24 + x3,5_24 + x3,6_24 + x4,5_24 + x4,6_24 + x5,6_24
   <= 2
 R5: x0,1_28 + x0,2_28 + x0,3_28 + x0,4_28 + x0,5_28 + x0,6_28 + x1,2_28
   + x1,3_28 + x1,4_28 + x1,5_28 + x1,6_28 + x2,3_28 + x2,4_28 + x2,5_28
   + x2,6_28 + x3,4_28 + x3,5_28 + x3,6_28 + x4,5_28 + x4,6_28 + x5,6_28
   <= 1
 R6: x0,1_33 + x0,2_33 + x0,3_33 + x0,4_33 + x0,5_33 + x0,6_33 + x1,2_33
   + x1,3_33 + x1,4_33 + x1,5_33 + x1,6_33 + x2,3_33 + x2,4_33 + x2,5_33
   + x2,6_33 + x3,4_33 + x3,5_33 + x3,6_33 + x4,5_33 + x4,6_33 + x5,6_33
   <= 1
 R7: x0,1_35 + x0,2_35 + x0,3_35 + x0,4_35 + x0,5_35 + x0,6_35 + x1,2_35
   + x1,3_35 + x1,4_35 + x1,5_35 + x1,6_35 + x2,3_35 + x2,4_35 + x2,5_35
   + x2,6_35 + x3,4_35 + x3,5_35 + x3,6_35 + x4,5_35 + x4,6_35 + x5,6_35
   <= 1
 R8: x0,1_37 + x0,2_37 + x0,3_37 + x0,4_37 + x0,5_37 + x0,6_37 + x1,2_37
   + x1,3_37 + x1,4_37 + x1,5_37 + x1,6_37 + x2,3_37 + x2,4_37 + x2,5_37
   + x2,6_37 + x3,4_37 + x3,5_37 + x3,6_37 + x4,5_37 + x4,6_37 + x5,6_37
   <= 1
 R9: x0,1_39 + x0,2_39 + x0,3_39 + x0,4_39 + x0,5_39 + x0,6_39 + x1,2_39
   + x1,3_39 + x1,4_39 + x1,5_39 + x1,6_39 + x2,3_39 + x2,4_39 + x2,5_39
   + x2,6_39 + x3,4_39 + x3,5_39 + x3,6_39 + x4,5_39 + x4,6_39 + x5,6_39
   <= 1
 R10: x0,1_48 + x0,2_48 + x0,3_48 + x0,4_48 + x0,5_48 + x0,6_48 + x1,2_48
   + x1,3_48 + x1,4_48 + x1,5_48 + x1,6_48 + x2,3_48 + x2,4_48 + x2,5_48
   + x2,6_48 + x3,4_48 + x3,5_48 + x3,6_48 + x4,5_48 + x4,6_48 + x5,6_48
   <= 1
 R11: x0,1_59 + x0,2_59 + x0,3_59 + x0,4_59 + x0,5_59 + x0,6_59 + x1,2_59
   + x1,3_59 + x1,4_59 + x1,5_59 + x1,6_59 + x2,3_59 + x2,4_59 + x2,5_59
   + x2,6_59 + x3,4_59 + x3,5_59 + x3,6_59 + x4,5_59 + x4,6_59 + x5,6_59
   <= 1
 R12: x0,1_61 + x0,2_61 + x0,3_61 + x0,4_61 + x0,5_61 + x0,6_61 + x1,2_61
   + x1,3_61 + x1,4_61 + x1,5_61 + x1,6_61 + x2,3_61 + x2,4_61 + x2,5_61
   + x2,6_61 + x3,4_61 + x3,5_61 + x3,6_61 + x4,5_61 + x4,6_61 + x5,6_61
   <= 1
 R13: x0,1_72 + x0,2_72 + x0,3_72 + x0,4_72 + x0,5_72 + x0,6_72 + x1,2_72
   + x1,3_72 + x1,4_72 + x1,5_72 + x1,6_72 + x2,3_72 + x2,4_72 + x2,5_72
   + x2,6_72 + x3,4_72 + x3,5_72 + x3,6_72 + x4,5_72 + x4,6_72 + x5,6_72
   <= 1
 R14: x0,1_4 + x0,1_11 + x0,1_13 + x0,1_20 + x0,1_24 + x0,1_28 + x0,1_33
   + x0,1_35 + x0,1_37 + x0,1_39 + x0,1_48 + x0,1_59 + x0,1_61 + x0,1_72
   <= 1
 R15: x0,2_4 + x0,2_11 + x0,2_13 + x0,2_20 + x0,2_24 + x0,2_28 + x0,2_33
   + x0,2_35 + x0,2_37 + x0,2_39 + x0,2_48 + x0,2_59 + x0,2_61 + x0,2_72
   <= 1
 R16: x0,3_4 + x0,3_11 + x0,3_13 + x0,3_20 + x0,3_24 + x0,3_28 + x0,3_33
   + x0,3_35 + x0,3_37 + x0,3_39 + x0,3_48 + x0,3_59 + x0,3_61 + x0,3_72
   <= 1
 R17: x0,4_4 + x0,4_11 + x0,4_13 + x0,4_20 + x0,4_24 + x0,4_28 + x0,4_33
   + x0,4_35 + x0,4_37 + x0,4_39 + x0,4_48 + x0,4_59 + x0,4_61 + x0,4_72
   <= 1
 R18: x0,5_4 + x0,5_11 + x0,5_13 + x0,5_20 + x0,5_24 + x0,5_28 + x0,5_33
   + x0,5_35 + x0,5_37 + x0,5_39 + x0,5_48 + x0,5_59 + x0,5_61 + x0,5_72
   <= 1
 R19: x0,6_4 + x0,6_11 + x0,6_13 + x0,6_20 + x0,6_24 + x0,6_28 + x0,6_33
   + x0,6_35 + x0,6_37 + x0,6_39 + x0,6_48 + x0,6_59 + x0,6_61 + x0,6_72
   <= 1
 R20: x1,2_4 + x1,2_11 + x1,2_13 + x1,2_20 + x1,2_24 + x1,2_28 + x1,2_33
   + x1,2_35 + x1,2_37 + x1,2_39 + x1,2_48 + x1,2_59 + x1,2_61 + x1,2_72
   <= 1
 R21: x1,3_4 + x1,3_11 + x1,3_13 + x1,3_20 + x1,3_24 + x1,3_28 + x1,3_33
   + x1,3_35 + x1,3_37 + x1,3_39 + x1,3_48 + x1,3_59 + x1,3_61 + x1,3_72
   <= 1
 R22: x1,4_4 + x1,4_11 + x1,4_13 + x1,4_20 + x1,4_24 + x1,4_28 + x1,4_33
   + x1,4_35 + x1,4_37 + x1,4_39 + x1,4_48 + x1,4_59 + x1,4_61 + x1,4_72
   <= 1
 R23: x1,5_4 + x1,5_11 + x1,5_13 + x1,5_20 + x1,5_24 + x1,5_28 + x1,5_33
   + x1,5_35 + x1,5_37 + x1,5_39 + x1,5_48 + x1,5_59 + x1,5_61 + x1,5_72
   <= 1
 R24: x1,6_4 + x1,6_11 + x1,6_13 + x1,6_20 + x1,6_24 + x1,6_28 + x1,6_33
   + x1,6_35 + x1,6_37 + x1,6_39 + x1,6_48 + x1,6_59 + x1,6_61 + x1,6_72
   <= 1
 R25: x2,3_4 + x2,3_11 + x2,3_13 + x2,3_20 + x2,3_24 + x2,3_28 + x2,3_33
   + x2,3_35 + x2,3_37 + x2,3_39 + x2,3_48 + x2,3_59 + x2,3_61 + x2,3_72
   <= 1
 R26: x2,4_4 + x2,4_11 + x2,4_13 + x2,4_20 + x2,4_24 + x2,4_28 + x2,4_33
   + x2,4_35 + x2,4_37 + x2,4_39 + x2,4_48 + x2,4_59 + x2,4_61 + x2,4_72
   <= 1
 R27: x2,5_4 + x2,5_11 + x2,5_13 + x2,5_20 + x2,5_24 + x2,5_28 + x2,5_33
   + x2,5_35 + x2,5_37 + x2,5_39 + x2,5_48 + x2,5_59 + x2,5_61 + x2,5_72
   <= 1
 R28: x2,6_4 + x2,6_11 + x2,6_13 + x2,6_20 + x2,6_24 + x2,6_28 + x2,6_33
   + x2,6_35 + x2,6_37 + x2,6_39 + x2,6_48 + x2,6_59 + x2,6_61 + x2,6_72
   <= 1
 R29: x3,4_4 + x3,4_11 + x3,4_13 + x3,4_20 + x3,4_24 + x3,4_28 + x3,4_33
   + x3,4_35 + x3,4_37 + x3,4_39 + x3,4_48 + x3,4_59 + x3,4_61 + x3,4_72
   <= 1
 R30: x3,5_4 + x3,5_11 + x3,5_13 + x3,5_20 + x3,5_24 + x3,5_28 + x3,5_33
   + x3,5_35 + x3,5_37 + x3,5_39 + x3,5_48 + x3,5_59 + x3,5_61 + x3,5_72
   <= 1
 R31: x3,6_4 + x3,6_11 + x3,6_13 + x3,6_20 + x3,6_24 + x3,6_28 + x3,6_33
   + x3,6_35 + x3,6_37 + x3,6_39 + x3,6_48 + x3,6_59 + x3,6_61 + x3,6_72
   <= 1
 R32: x4,5_4 + x4,5_11 + x4,5_13 + x4,5_20 + x4,5_24 + x4,5_28 + x4,5_33
   + x4,5_35 + x4,5_37 + x4,5_39 + x4,5_48 + x4,5_59 + x4,5_61 + x4,5_72
   <= 1
 R33: x4,6_4 + x4,6_11 + x4,6_13 + x4,6_20 + x4,6_24 + x4,6_28 + x4,6_33
   + x4,6_35 + x4,6_37 + x4,6_39 + x4,6_48 + x4,6_59 + x4,6_61 + x4,6_72
   <= 1
 R34: x5,6_4 + x5,6_11 + x5,6_13 + x5,6_20 + x5,6_24 + x5,6_28 + x5,6_33
   + x5,6_35 + x5,6_37 + x5,6_39 + x5,6_48 + x5,6_59 + x5,6_61 + x5,6_72
   <= 1
 R35: p0 - p1 <= -1
 R36: - 4 x0,1_4 - p0 + p1 >= 0
 R37: 508 x0,1_4 - p0 + p1 <= 512
 R38: - 11 x0,1_11 - p0 + p1 >= 0
 R39: 508 x0,1_11 - p0 + p1 <= 519
 R40: - 13 x0,1_13 - p0 + p1 >= 0
 R41: 508 x0,1_13 - p0 + p1 <= 521
 R42: - 20 x0,1_20 - p0 + p1 >= 0
 R43: 508 x0,1_20 - p0 + p1 <= 528
 R44: - 24 x0,1_24 - p0 + p1 >= 0
 R45: 508 x0,1_24 - p0 + p1 <= 532
 R46: - 28 x0,1_28 - p0 + p1 >= 0
 R47: 508 x0,1_28 - p0 + p1 <= 536
 R48: - 33 x0,1_33 - p0 + p1 >= 0
 R49: 508 x0,1_33 - p0 + p1 <= 541
 R50: - 35 x0,1_35 - p0 + p1 >= 0
 R51: 508 x0,1_35 - p0 + p1 <= 543
 R52: - 37 x0,1_37 - p0 + p1 >= 0
 R53: 508 x0,1_37 - p0 + p1 <= 545
 R54: - 39 x0,1_39 - p0 + p1 >= 0
 R55: 508 x0,1_39 - p0 + p1 <= 547
 R56: - 48 x0,1_48 - p0 + p1 >= 0
 R57: 508 x0,1_48 - p0 + p1 <= 556
 R58: - 59 x0,1_59 - p0 + p1 >= 0
 R59: 508 x0,1_59 - p0 + p1 <= 567
 R60: - 61 x0,1_61 - p0 + p1 >= 0
 R61: 508 x0,1_61 - p0 + p1 <= 569
 R62: - 72 x0,1_72 - p0 + p1 >= 0
 R63: 508 x0,1_72 - p0 + p1 <= 580
 R64: p0 - p2 <= -1
 R65: - 4 x0,2_4 - p0 + p2 >= 0
 R66: 508 x0,2_4 - p0 + p2 <= 512
 R67: - 11 x0,2_11 - p0 + p2 >= 0
 R68: 508 x0,2_11 - p0 + p2 <= 519
 R69: - 13 x0,2_13 - p0 + p2 >= 0
 R70: 508 x0,2_13 - p0 + p2 <= 521
 R71: - 20 x0,2_20 - p0 + p2 >= 0
 R72: 508 x0,2_20 - p0 + p2 <= 528
 R73: - 24 x0,2_24 - p0 + p2 >= 0
 R74: 508 x0,2_24 - p0 + p2 <= 532
 R75: - 28 x0,2_28 - p0 + p2 >= 0
 R76: 508 x0,2_28 - p0 + p2 <= 536
 R77: - 33 x0,2_33 - p0 + p2 >= 0
 R78: 508 x0,2_33 - p0 + p2 <= 541
 R79: - 35 x0,2_35 - p0 + p2 >= 0
 R80: 508 x0,2_35 - p0 + p2 <= 543
 R81: - 37 x0,2_37 - p0 + p2 >= 0
 R82: 508 x0,2_37 - p0 + p2 <= 545
 R83: - 39 x0,2_39 - p0 + p2 >= 0
 R84: 508 x0,2_39 - p0 + p2 <= 547
 R85: - 48 x0,2_48 - p0 + p2 >= 0
 R86: 508 x0,2_48 - p0 + p2 <= 556
 R87: - 59 x0,2_59 - p0 + p2 >= 0
 R88: 508 x0,2_59 - p0 + p2 <= 567
 R89: - 61 x0,2_61 - p0 + p2 >= 0
 R90: 508 x0,2_61 - p0 + p2 <= 569
 R91: - 72 x0,2_72 - p0 + p2 >= 0
 R92: 508 x0,2_72 - p0 + p2 <= 580
 R93: p0 - p3 <= -1
 R94: - 4 x0,3_4 - p0 + p3 >= 0
 R95: 508 x0,3_4 - p0 + p3 <= 512
 R96: - 11 x0,3_11 - p0 + p3 >= 0
 R97: 508 x0,3_11 - p0 + p3 <= 519
 R98: - 13 x0,3_13 - p0 + p3 >= 0
 R99: 508 x0,3_13 - p0 + p3 <= 521
 R100: - 20 x0,3_20 - p0 + p3 >= 0
 R101: 508 x0,3_20 - p0 + p3 <= 528
 R102: - 24 x0,3_24 - p0 + p3 >= 0
 R103: 508 x0,3_24 - p0 + p3 <= 532
 R104: - 28 x0,3_28 - p0 + p3 >= 0
 R105: 508 x0,3_28 - p0 + p3 <= 536
 R106: - 33 x0,3_33 - p0 + p3 >= 0
 R107: 508 x0,3_33 - p0 + p3 <= 541
 R108: - 35 x0,3_35 - p0 + p3 >= 0
 R109: 508 x0,3_35 - p0 + p3 <= 543
 R110: - 37 x0,3_37 - p0 + p3 >= 0
 R111: 508 x0,3_37 - p0 + p3 <= 545
 R112: - 39 x0,3_39 - p0 + p3 >= 0
 R113: 508 x0,3_39 - p0 + p3 <= 547
 R114: - 48 x0,3_48 - p0 + p3 >= 0
 R115: 508 x0,3_48 - p0 + p3 <= 556
 R116: - 59 x0,3_59 - p0 + p3 >= 0
 R117: 508 x0,3_59 - p0 + p3 <= 567
 R118: - 61 x0,3_61 - p0 + p3 >= 0
 R119: 508 x0,3_61 - p0 + p3 <= 569
 R120: - 72 x0,3_72 - p0 + p3 >= 0
 R121: 508 x0,3_72 - p0 + p3 <= 580
 R122: p0 - p4 <= -1
 R123: - 4 x0,4_4 - p0 + p4 >= 0
 R124: 508 x0,4_4 - p0 + p4 <= 512
 R125: - 11 x0,4_11 - p0 + p4 >= 0
 R126: 508 x0,4_11 - p0 + p4 <= 519
 R127: - 13 x0,4_13 - p0 + p4 >= 0
 R128: 508 x0,4_13 - p0 + p4 <= 521
 R129: - 20 x0,4_20 - p0 + p4 >= 0
 R130: 508 x0,4_20 - p0 + p4 <= 528
 R131: - 24 x0,4_24 - p0 + p4 >= 0
 R132: 508 x0,4_24 - p0 + p4 <= 532
 R133: - 28 x0,4_28 - p0 + p4 >= 0
 R134: 508 x0,4_28 - p0 + p4 <= 536
 R135: - 33 x0,4_33 - p0 + p4 >= 0
 R136: 508 x0,4_33 - p0 + p4 <= 541
 R137: - 35 x0,4_35 - p0 + p4 >= 0
 R138: 508 x0,4_35 - p0 + p4 <= 543
 R139: - 37 x0,4_37 - p0 + p4 >= 0
 R140: 508 x0,4_37 - p0 + p4 <= 545
 R141: - 39 x0,4_39 - p0 + p4 >= 0
 R142: 508 x0,4_39 - p0 + p4 <= 547
 R143: - 48 x0,4_48 - p0 + p4 >= 0
 R144: 508 x0,4_48 - p0 + p4 <= 556
 R145: - 59 x0,4_59 - p0 + p4 >= 0
 R146: 508 x0,4_59 - p0 + p4 <= 567
 R147: - 61 x0,4_61 - p0 + p4 >= 0
 R148: 508 x0,4_61 - p0 + p4 <= 569
 R149: - 72 x0,4_72 - p0 + p4 >= 0
 R150: 508 x0,4_72 - p0 + p4 <= 580
 R151: p0 - p5 <= -1
 R152: - 4 x0,5_4 - p0 + p5 >= 0
 R153: 508 x0,5_4 - p0 + p5 <= 512
 R154: - 11 x0,5_11 - p0 + p5 >= 0
 R155: 508 x0,5_11 - p0 + p5 <= 519
 R156: - 13 x0,5_13 - p0 + p5 >= 0
 R157: 508 x0,5_13 - p0 + p5 <= 521
 R158: - 20 x0,5_20 - p0 + p5 >= 0
 R159: 508 x0,5_20 - p0 + p5 <= 528
 R160: - 24 x0,5_24 - p0 + p5 >= 0
 R161: 508 x0,5_24 - p0 + p5 <= 532
 R162: - 28 x0,5_28 - p0 + p5 >= 0
 R163: 508 x0,5_28 - p0 + p5 <= 536
 R164: - 33 x0,5_33 - p0 + p5 >= 0
 R165: 508 x0,5_33 - p0 + p5 <= 541
 R166: - 35 x0,5_35 - p0 + p5 >= 0
 R167: 508 x0,5_35 - p0 + p5 <= 543
 R168: - 37 x0,5_37 - p0 + p5 >= 0
 R169: 508 x0,5_37 - p0 + p5 <= 545
 R170: - 39 x0,5_39 - p0 + p5 >= 0
 R171: 508 x0,5_39 - p0 + p5 <= 547
 R172: - 48 x0,5_48 - p0 + p5 >= 0
 R173: 508 x0,5_48 - p0 + p5 <= 556
 R174: - 59 x0,5_59 - p0 + p5 >= 0
 R175: 508 x0,5_59 - p0 + p5 <= 567
 R176: - 61 x0,5_61 - p0 + p5 >= 0
 R177: 508 x0,5_61 - p0 + p5 <= 569
 R178: - 72 x0,5_72 - p0 + p5 >= 0
 R179: 508 x0,5_72 - p0 + p5 <= 580
 R180: p0 - p6 <= -1
 R181: - 4 x0,6_4 - p0 + p6 >= 0
 R182: 508 x0,6_4 - p0 + p6 <= 512
 R183: - 11 x0,6_11 - p0 + p6 >= 0
 R184: 508 x0,6_11 - p0 + p6 <= 519
 R185: - 13 x0,6_13 - p0 + p6 >= 0
 R186: 508 x0,6_13 - p0 + p6 <= 521
 R187: - 20 x0,6_20 - p0 + p6 >= 0
 R188: 508 x0,6_20 - p0 + p6 <= 528
 R189: - 24 x0,6_24 - p0 + p6 >= 0
 R190: 508 x0,6_24 - p0 + p6 <= 532
 R191: - 28 x0,6_28 - p0 + p6 >= 0
 R192: 508 x0,6_28 - p0 + p6 <= 536
 R193: - 33 x0,6_33 - p0 + p6 >= 0
 R194: 508 x0,6_33 - p0 + p6 <= 541
 R195: - 35 x0,6_35 - p0 + p6 >= 0
 R196: 508 x0,6_35 - p0 + p6 <= 543
 R197: - 37 x0,6_37 - p0 + p6 >= 0
 R198: 508 x0,6_37 - p0 + p6 <= 545
 R199: - 39 x0,6_39 - p0 + p6 >= 0
 R200: 508 x0,6_39 - p0 + p6 <= 547
 R201: - 48 x0,6_48 - p0 + p6 >= 0
 R202: 508 x0,6_48 - p0 + p6 <= 556
 R203: - 59 x0,6_59 - p0 + p6 >= 0
 R204: 508 x0,6_59 - p0 + p6 <= 567
 R205: - 61 x0,6_61 - p0 + p6 >= 0
 R206: 508 x0,6_61 - p0 + p6 <= 569
 R207: - 72 x0,6_72 - p0 + p6 >= 0
 R208: 508 x0,6_72 - p0 + p6 <= 580
 R209: p1 - p2 <= -1
 R210: - 4 x1,2_4 - p1 + p2 >= 0
 R211: 508 x1,2_4 - p1 + p2 <= 512
 R212: - 11 x1,2_11 - p1 + p2 >= 0
 R213: 508 x1,2_11 - p1 + p2 <= 519
 R214: - 13 x1,2_13 - p1 + p2 >= 0
 R215: 508 x1,2_13 - p1 + p2 <= 521
 R216: - 20 x1,2_20 - p1 + p2 >= 0
 R217: 508 x1,2_20 - p1 + p2 <= 528
 R218: - 24 x1,2_24 - p1 + p2 >= 0
 R219: 508 x1,2_24 - p1 + p2 <= 532
 R220: - 28 x1,2_28 - p1 + p2 >= 0
 R221: 508 x1,2_28 - p1 + p2 <= 536
 R222: - 33 x1,2_33 - p1 + p2 >= 0
 R223: 508 x1,2_33 - p1 + p2 <= 541
 R224: - 35 x1,2_35 - p1 + p2 >= 0
 R225: 508 x1,2_35 - p1 + p2 <= 543
 R226: - 37 x1,2_37 - p1 + p2 >= 0
 R227: 508 x1,2_37 - p1 + p2 <= 545
 R228: - 39 x1,2_39 - p1 + p2 >= 0
 R229: 508 x1,2_39 - p1 + p2 <= 547
 R230: - 48 x1,2_48 - p1 + p2 >= 0
 R231: 508 x1,2_48 - p1 + p2 <= 556
 R232: - 59 x1,2_59 - p1 + p2 >= 0
 R233: 508 x1,2_59 - p1 + p2 <= 567
 R234: - 61 x1,2_61 - p1 + p2 >= 0
 R235: 508 x1,2_61 - p1 + p2 <= 569
 R236: - 72 x1,2_72 - p1 + p2 >= 0
 R237: 508 x1,2_72 - p1 + p2 <= 580
 R238: p1 - p3 <= -1
 R239: - 4 x1,3_4 - p1 + p3 >= 0
 R240: 508 x1,3_4 - p1 + p3 <= 512
 R241: - 11 x1,3_11 - p1 + p3 >= 0
 R242: 508 x1,3_11 - p1 + p3 <= 519
 R243: - 13 x1,3_13 - p1 + p3 >= 0
 R244: 508 x1,3_13 - p1 + p3 <= 521
 R245: - 20 x1,3_20 - p1 + p3 >= 0
 R246: 508 x1,3_20 - p1 + p3 <= 528
 R247: - 24 x1,3_24 - p1 + p3 >= 0
 R248: 508 x1,3_24 - p1 + p3 <= 532
 R249: - 28 x1,3_28 - p1 + p3 >= 0
 R250: 508 x1,3_28 - p1 + p3 <= 536
 R251: - 33 x1,3_33 - p1 + p3 >= 0
 R252: 508 x1,3_33 - p1 + p3 <= 541
 R253: - 35 x1,3_35 - p1 + p3 >= 0
 R254: 508 x1,3_35 - p1 + p3 <= 543
 R255: - 37 x1,3_37 - p1 + p3 >= 0
 R256: 508 x1,3_37 - p1 + p3 <= 545
 R257: - 39 x1,3_39 - p1 + p3 >= 0
 R258: 508 x1,3_39 - p1 + p3 <= 547
 R259: - 48 x1,3_48 - p1 + p3 >= 0
 R260: 508 x1,3_48 - p1 + p3 <= 556
 R261: - 59 x1,3_59 - p1 + p3 >= 0
 R262: 508 x1,3_59 - p1 + p3 <= 567
 R263: - 61 x1,3_61 - p1 + p3 >= 0
 R264: 508 x1,3_61 - p1 + p3 <= 569
 R265: - 72 x1,3_72 - p1 + p3 >= 0
 R266: 508 x1,3_72 - p1 + p3 <= 580
 R267: p1 - p4 <= -1
 R268: - 4 x1,4_4 - p1 + p4 >= 0
 R269: 508 x1,4_4 - p1 + p4 <= 512
 R270: - 11 x1,4_11 - p1 + p4 >= 0
 R271: 508 x1,4_11 - p1 + p4 <= 519
 R272: - 13 x1,4_13 - p1 + p4 >= 0
 R273: 508 x1,4_13 - p1 + p4 <= 521
 R274: - 20 x1,4_20 - p1 + p4 >= 0
 R275: 508 x1,4_20 - p1 + p4 <= 528
 R276: - 24 x1,4_24 - p1 + p4 >= 0
 R277: 508 x1,4_24 - p1 + p4 <= 532
 R278: - 28 x1,4_28 - p1 + p4 >= 0
 R279: 508 x1,4_28 - p1 + p4 <= 536
 R280: - 33 x1,4_33 - p1 + p4 >= 0
 R281: 508 x1,4_33 - p1 + p4 <= 541
 R282: - 35 x1,4_35 - p1 + p4 >= 0
 R283: 508 x1,4_35 - p1 + p4 <= 543
 R284: - 37 x1,4_37 - p1 + p4 >= 0
 R285: 508 x1,4_37 - p1 + p4 <= 545
 R286: - 39 x1,4_39 - p1 + p4 >= 0
 R287: 508 x1,4_39 - p1 + p4 <= 547
 R288: - 48 x1,4_48 - p1 + p4 >= 0
 R289: 508 x1,4_48 - p1 + p4 <= 556
 R290: - 59 x1,4_59 - p1 + p4 >= 0
 R291: 508 x1,4_59 - p1 + p4 <= 567
 R292: - 61 x1,4_61 - p1 + p4 >= 0
 R293: 508 x1,4_61 - p1 + p4 <= 569
 R294: - 72 x1,4_72 - p1 + p4 >= 0
 R295: 508 x1,4_72 - p1 + p4 <= 580
 R296: p1 - p5 <= -1
 R297: - 4 x1,5_4 - p1 + p5 >= 0
 R298: 508 x1,5_4 - p1 + p5 <= 512
 R299: - 11 x1,5_11 - p1 + p5 >= 0
 R300: 508 x1,5_11 - p1 + p5 <= 519
 R301: - 13 x1,5_13 - p1 + p5 >= 0
 R302: 508 x1,5_13 - p1 + p5 <= 521
 R303: - 20 x1,5_20 - p1 + p5 >= 0
 R304: 508 x1,5_20 - p1 + p5 <= 528
 R305: - 24 x1,5_24 - p1 + p5 >= 0
 R306: 508 x1,5_24 - p1 + p5 <= 532
 R307: - 28 x1,5_28 - p1 + p5 >= 0
 R308: 508 x1,5_28 - p1 + p5 <= 536
 R309: - 33 x1,5_33 - p1 + p5 >= 0
 R310: 508 x1,5_33 - p1 + p5 <= 541
 R311: - 35 x1,5_35 - p1 + p5 >= 0
 R312: 508 x1,5_35 - p1 + p5 <= 543
 R313: - 37 x1,5_37 - p1 + p5 >= 0
 R314: 508 x1,5_37 - p1 + p5 <= 545
 R315: - 39 x1,5_39 - p1 + p5 >= 0
 R316: 508 x1,5_39 - p1 + p5 <= 547
 R317: - 48 x1,5_48 - p1 + p5 >= 0
 R318: 508 x1,5_48 - p1 + p5 <= 556
 R319: - 59 x1,5_59 - p1 + p5 >= 0
 R320: 508 x1,5_59 - p1 + p5 <= 567
 R321: - 61 x1,5_61 - p1 + p5 >= 0
 R322: 508 x1,5_61 - p1 + p5 <= 569
 R323: - 72 x1,5_72 - p1 + p5 >= 0
 R324: 508 x1,5_72 - p1 + p5 <= 580
 R325: p1 - p6 <= -1
 R326: - 4 x1,6_4 - p1 + p6 >= 0
 R327: 508 x1,6_4 - p1 + p6 <= 512
 R328: - 11 x1,6_11 - p1 + p6 >= 0
 R329: 508 x1,6_11 - p1 + p6 <= 519
 R330: - 13 x1,6_13 - p1 + p6 >= 0
 R331: 508 x1,6_13 - p1 + p6 <= 521
 R332: - 20 x1,6_20 - p1 + p6 >= 0
 R333: 508 x1,6_20 - p1 + p6 <= 528
 R334: - 24 x1,6_24 - p1 + p6 >= 0
 R335: 508 x1,6_24 - p1 + p6 <= 532
 R336: - 28 x1,6_28 - p1 + p6 >= 0
 R337: 508 x1,6_28 - p1 + p6 <= 536
 R338: - 33 x1,6_33 - p1 + p6 >= 0
 R339: 508 x1,6_33 - p1 + p6 <= 541
 R340: - 35 x1,6_35 - p1 + p6 >= 0
 R341: 508 x1,6_35 - p1 + p6 <= 543
 R342: - 37 x1,6_37 - p1 + p6 >= 0
 R343: 508 x1,6_37 - p1 + p6 <= 545
 R344: - 39 x1,6_39 - p1 + p6 >= 0
 R345: 508 x1,6_39 - p1 + p6 <= 547
 R346: - 48 x1,6_48 - p1 + p6 >= 0
 R347: 508 x1,6_48 - p1 + p6 <= 556
 R348: - 59 x1,6_59 - p1 + p6 >= 0
 R349: 508 x1,6_59 - p1 + p6 <= 567
 R350: - 61 x1,6_61 - p1 + p6 >= 0
 R351: 508 x1,6_61 - p1 + p6 <= 569
 R352: - 72 x1,6_72 - p1 + p6 >= 0
 R353: 508 x1,6_72 - p1 + p6 <= 580
 R354: p2 - p3 <= -1
 R355: - 4 x2,3_4 - p2 + p3 >= 0
 R356: 508 x2,3_4 - p2 + p3 <= 512
 R357: - 11 x2,3_11 - p2 + p3 >= 0
 R358: 508 x2,3_11 - p2 + p3 <= 519
 R359: - 13 x2,3_13 - p2 + p3 >= 0
 R360: 508 x2,3_13 - p2 + p3 <= 521
 R361: - 20 x2,3_20 - p2 + p3 >= 0
 R362: 508 x2,3_20 - p2 + p3 <= 528
 R363: - 24 x2,3_24 - p2 + p3 >= 0
 R364: 508 x2,3_24 - p2 + p3 <= 532
 R365: - 28 x2,3_28 - p2 + p3 >= 0
 R366: 508 x2,3_28 - p2 + p3 <= 536
 R367: - 33 x2,3_33 - p2 + p3 >= 0
 R368: 508 x2,3_33 - p2 + p3 <= 541
 R369: - 35 x2,3_35 - p2 + p3 >= 0
 R370: 508 x2,3_35 - p2 + p3 <= 543
 R371: - 37 x2,3_37 - p2 + p3 >= 0
 R372: 508 x2,3_37 - p2 + p3 <= 545
 R373: - 39 x2,3_39 - p2 + p3 >= 0
 R374: 508 x2,3_39 - p2 + p3 <= 547
 R375: - 48 x2,3_48 - p2 + p3 >= 0
 R376: 508 x2,3_48 - p2 + p3 <= 556
 R377: - 59 x2,3_59 - p2 + p3 >= 0
 R378: 508 x2,3_59 - p2 + p3 <= 567
 R379: - 61 x2,3_61 - p2 + p3 >= 0
 R380: 508 x2,3_61 - p2 + p3 <= 569
 R381: - 72 x2,3_72 - p2 + p3 >= 0
 R382: 508 x2,3_72 - p2 + p3 <= 580
 R383: p2 - p4 <= -1
 R384: - 4 x2,4_4 - p2 + p4 >= 0
 R385: 508 x2,4_4 - p2 + p4 <= 512
 R386: - 11 x2,4_11 - p2 + p4 >= 0
 R387: 508 x2,4_11 - p2 + p4 <= 519
 R388: - 13 x2,4_13 - p2 + p4 >= 0
 R389: 508 x2,4_13 - p2 + p4 <= 521
 R390: - 20 x2,4_20 - p2 + p4 >= 0
 R391: 508 x2,4_20 - p2 + p4 <= 528
 R392: - 24 x2,4_24 - p2 + p4 >= 0
 R393: 508 x2,4_24 - p2 + p4 <= 532
 R394: - 28 x2,4_28 - p2 + p4 >= 0
 R395: 508 x2,4_28 - p2 + p4 <= 536
 R396: - 33 x2,4_33 - p2 + p4 >= 0
 R397: 508 x2,4_33 - p2 + p4 <= 541
 R398: - 35 x2,4_35 - p2 + p4 >= 0
 R399: 508 x2,4_35 - p2 + p4 <= 543
 R400: - 37 x2,4_37 - p2 + p4 >= 0
 R401: 508 x2,4_37 - p2 + p4 <= 545
 R402: - 39 x2,4_39 - p2 + p4 >= 0
 R403: 508 x2,4_39 - p2 + p4 <= 547
 R404: - 48 x2,4_48 - p2 + p4 >= 0
 R405: 508 x2,4_48 - p2 + p4 <= 556
 R406: - 59 x2,4_59 - p2 + p4 >= 0
 R407: 508 x2,4_59 - p2 + p4 <= 567
 R408: - 61 x2,4_61 - p2 + p4 >= 0
 R409: 508 x2,4_61 - p2 + p4 <= 569
 R410: - 72 x2,4_72 - p2 + p4 >= 0
 R411: 508 x2,4_72 - p2 + p4 <= 580
 R412: p2 - p5 <= -1
 R413: - 4 x2,5_4 - p2 + p5 >= 0
 R414: 508 x2,5_4 - p2 + p5 <= 512
 R415: - 11 x2,5_11 - p2 + p5 >= 0
 R416: 508 x2,5_11 - p2 + p5 <= 519
 R417: - 13 x2,5_13 - p2 + p5 >= 0
 R418: 508 x2,5_13 - p2 + p5 <= 521
 R419: - 20 x2,5_20 - p2 + p5 >= 0
 R420: 508 x2,5_20 - p2 + p5 <= 528
 R421: - 24 x2,5_24 - p2 + p5 >= 0
 R422: 508 x2,5_24 - p2 + p5 <= 532
 R423: - 28 x2,5_28 - p2 + p5 >= 0
 R424: 508 x2,5_28 - p2 + p5 <= 536
 R425: - 33 x2,5_33 - p2 + p5 >= 0
 R426: 508 x2,5_33 - p2 + p5 <= 541
 R427: - 35 x2,5_35 - p2 + p5 >= 0
 R428: 508 x2,5_35 - p2 + p5 <= 543
 R429: - 37 x2,5_37 - p2 + p5 >= 0
 R430: 508 x2,5_37 - p2 + p5 <= 545
 R431: - 39 x2,5_39 - p2 + p5 >= 0
 R432: 508 x2,5_39 - p2 + p5 <= 547
 R433: - 48 x2,5_48 - p2 + p5 >= 0
 R434: 508 x2,5_48 - p2 + p5 <= 556
 R435: - 59 x2,5_59 - p2 + p5 >= 0
 R436: 508 x2,5_59 - p2 + p5 <= 567
 R437: - 61 x2,5_61 - p2 + p5 >= 0
 R438: 508 x2,5_61 - p2 + p5 <= 569
 R439: - 72 x2,5_72 - p2 + p5 >= 0
 R440: 508 x2,5_72 - p2 + p5 <= 580
 R441: p2 - p6 <= -1
 R442: - 4 x2,6_4 - p2 + p6 >= 0
 R443: 508 x2,6_4 - p2 + p6 <= 512
 R444: - 11 x2,6_11 - p2 + p6 >= 0
 R445: 508 x2,6_11 - p2 + p6 <= 519
 R446: - 13 x2,6_13 - p2 + p6 >= 0
 R447: 508 x2,6_13 - p2 + p6 <= 521
 R448: - 20 x2,6_20 - p2 + p6 >= 0
 R449: 508 x2,6_20 - p2 + p6 <= 528
 R450: - 24 x2,6_24 - p2 + p6 >= 0
 R451: 508 x2,6_24 - p2 + p6 <= 532
 R452: - 28 x2,6_28 - p2 + p6 >= 0
 R453: 508 x2,6_28 - p2 + p6 <= 536
 R454: - 33 x2,6_33 - p2 + p6 >= 0
 R455: 508 x2,6_33 - p2 + p6 <= 541
 R456: - 35 x2,6_35 - p2 + p6 >= 0
 R457: 508 x2,6_35 - p2 + p6 <= 543
 R458: - 37 x2,6_37 - p2 + p6 >= 0
 R459: 508 x2,6_37 - p2 + p6 <= 545
 R460: - 39 x2,6_39 - p2 + p6 >= 0
 R461: 508 x2,6_39 - p2 + p6 <= 547
 R462: - 48 x2,6_48 - p2 + p6 >= 0
 R463: 508 x2,6_48 - p2 + p6 <= 556
 R464: - 59 x2,6_59 - p2 + p6 >= 0
 R465: 508 x2,6_59 - p2 + p6 <= 567
 R466: - 61 x2,6_61 - p2 + p6 >= 0
 R467: 508 x2,6_61 - p2 + p6 <= 569
 R468: - 72 x2,6_72 - p2 + p6 >= 0
 R469: 508 x2,6_72 - p2 + p6 <= 580
 R470: p3 - p4 <= -1
 R471: - 4 x3,4_4 - p3 + p4 >= 0
 R472: 508 x3,4_4 - p3 + p4 <= 512
 R473: - 11 x3,4_11 - p3 + p4 >= 0
 R474: 508 x3,4_11 - p3 + p4 <= 519
 R475: - 13 x3,4_13 - p3 + p4 >= 0
 R476: 508 x3,4_13 - p3 + p4 <= 521
 R477: - 20 x3,4_20 - p3 + p4 >= 0
 R478: 508 x3,4_20 - p3 + p4 <= 528
 R479: - 24 x3,4_24 - p3 + p4 >= 0
 R480: 508 x3,4_24 - p3 + p4 <= 532
 R481: - 28 x3,4_28 - p3 + p4 >= 0
 R482: 508 x3,4_28 - p3 + p4 <= 536
 R483: - 33 x3,4_33 - p3 + p4 >= 0
 R484: 508 x3,4_33 - p3 + p4 <= 541
 R485: - 35 x3,4_35 - p3 + p4 >= 0
 R486: 508 x3,4_35 - p3 + p4 <= 543
 R487: - 37 x3,4_37 - p3 + p4 >= 0
 R488: 508 x3,4_37 - p3 + p4 <= 545
 R489: - 39 x3,4_39 - p3 + p4 >= 0
 R490: 508 x3,4_39 - p3 + p4 <= 547
 R491: - 48 x3,4_48 - p3 + p4 >= 0
 R492: 508 x3,4_48 - p3 + p4 <= 556
 R493: - 59 x3,4_59 - p3 + p4 >= 0
 R494: 508 x3,4_59 - p3 + p4 <= 567
 R495: - 61 x3,4_61 - p3 + p4 >= 0
 R496: 508 x3,4_61 - p3 + p4 <= 569
 R497: - 72 x3,4_72 - p3 + p4 >= 0
 R498: 508 x3,4_72 - p3 + p4 <= 580
 R499: p3 - p5 <= -1
 R500: - 4 x3,5_4 - p3 + p5 >= 0
 R501: 508 x3,5_4 - p3 + p5 <= 512
 R502: - 11 x3,5_11 - p3 + p5 >= 0
 R503: 508 x3,5_11 - p3 + p5 <= 519
 R504: - 13 x3,5_13 - p3 + p5 >= 0
 R505: 508 x3,5_13 - p3 + p5 <= 521
 R506: - 20 x3,5_20 - p3 + p5 >= 0
 R507: 508 x3,5_20 - p3 + p5 <= 528
 R508: - 24 x3,5_24 - p3 + p5 >= 0
 R509: 508 x3,5_24 - p3 + p5 <= 532
 R510: - 28 x3,5_28 - p3 + p5 >= 0
 R511: 508 x3,5_28 - p3 + p5 <= 536
 R512: - 33 x3,5_33 - p3 + p5 >= 0
 R513: 508 x3,5_33 - p3 + p5 <= 541
 R514: - 35 x3,5_35 - p3 + p5 >= 0
 R515: 508 x3,5_35 - p3 + p5 <= 543
 R516: - 37 x3,5_37 - p3 + p5 >= 0
 R517: 508 x3,5_37 - p3 + p5 <= 545
 R518: - 39 x3,5_39 - p3 + p5 >= 0
 R519: 508 x3,5_39 - p3 + p5 <= 547
 R520: - 48 x3,5_48 - p3 + p5 >= 0
 R521: 508 x3,5_48 - p3 + p5 <= 556
 R522: - 59 x3,5_59 - p3 + p5 >= 0
 R523: 508 x3,5_59 - p3 + p5 <= 567
 R524: - 61 x3,5_61 - p3 + p5 >= 0
 R525: 508 x3,5_61 - p3 + p5 <= 569
 R526: - 72 x3,5_72 - p3 + p5 >= 0
 R527: 508 x3,5_72 - p3 + p5 <= 580
 R528: p3 - p6 <= -1
 R529: - 4 x3,6_4 - p3 + p6 >= 0
 R530: 508 x3,6_4 - p3 + p6 <= 512
 R531: - 11 x3,6_11 - p3 + p6 >= 0
 R532: 508 x3,6_11 - p3 + p6 <= 519
 R533: - 13 x3,6_13 - p3 + p6 >= 0
 R534: 508 x3,6_13 - p3 + p6 <= 521
 R535: - 20 x3,6_20 - p3 + p6 >= 0
 R536: 508 x3,6_20 - p3 + p6 <= 528
 R537: - 24 x3,6_24 - p3 + p6 >= 0
 R538: 508 x3,6_24 - p3 + p6 <= 532
 R539: - 28 x3,6_28 - p3 + p6 >= 0
 R540: 508 x3,6_28 - p3 + p6 <= 536
 R541: - 33 x3,6_33 - p3 + p6 >= 0
 R542: 508 x3,6_33 - p3 + p6 <= 541
 R543: - 35 x3,6_35 - p3 + p6 >= 0
 R544: 508 x3,6_35 - p3 + p6 <= 543
 R545: - 37 x3,6_37 - p3 + p6 >= 0
 R546: 508 x3,6_37 - p3 + p6 <= 545
 R547: - 39 x3,6_39 - p3 + p6 >= 0
 R548: 508 x3,6_39 - p3 + p6 <= 547
 R549: - 48 x3,6_48 - p3 + p6 >= 0
 R550: 508 x3,6_48 - p3 + p6 <= 556
 R551: - 59 x3,6_59 - p3 + p6 >= 0
 R552: 508 x3,6_59 - p3 + p6 <= 567
 R553: - 61 x3,6_61 - p3 + p6 >= 0
 R554: 508 x3,6_61 - p3 + p6 <= 569
 R555: - 72 x3,6_72 - p3 + p6 >= 0
 R556: 508 x3,6_72 - p3 + p6 <= 580
 R557: p4 - p5 <= -1
 R558: - 4 x4,5_4 - p4 + p5 >= 0
 R559: 508 x4,5_4 - p4 + p5 <= 512
 R560: - 11 x4,5_11 - p4 + p5 >= 0
 R561: 508 x4,5_11 - p4 + p5 <= 519
 R562: - 13 x4,5_13 - p4 + p5 >= 0
 R563: 508 x4,5_13 - p4 + p5 <= 521
 R564: - 20 x4,5_20 - p4 + p5 >= 0
 R565: 508 x4,5_20 - p4 + p5 <= 528
 R566: - 24 x4,5_24 - p4 + p5 >= 0
 R567: 508 x4,5_24 - p4 + p5 <= 532
 R568: - 28 x4,5_28 - p4 + p5 >= 0
 R569: 508 x4,5_28 - p4 + p5 <= 536
 R570: - 33 x4,5_33 - p4 + p5 >= 0
 R571: 508 x4,5_33 - p4 + p5 <= 541
 R572: - 35 x4,5_35 - p4 + p5 >= 0
 R573: 508 x4,5_35 - p4 + p5 <= 543
 R574: - 37 x4,5_37 - p4 + p5 >= 0
 R575: 508 x4,5_37 - p4 + p5 <= 545
 R576: - 39 x4,5_39 - p4 + p5 >= 0
 R577: 508 x4,5_39 - p4 + p5 <= 547
 R578: - 48 x4,5_48 - p4 + p5 >= 0
 R579: 508 x4,5_48 - p4 + p5 <= 556
 R580: - 59 x4,5_59 - p4 + p5 >= 0
 R581: 508 x4,5_59 - p4 + p5 <= 567
 R582: - 61 x4,5_61 - p4 + p5 >= 0
 R583: 508 x4,5_61 - p4 + p5 <= 569
 R584: - 72 x4,5_72 - p4 + p5 >= 0
 R585: 508 x4,5_72 - p4 + p5 <= 580
 R586: p4 - p6 <= -1
 R587: - 4 x4,6_4 - p4 + p6 >= 0
 R588: 508 x4,6_4 - p4 + p6 <= 512
 R589: - 11 x4,6_11 - p4 + p6 >= 0
 R590: 508 x4,6_11 - p4 + p6 <= 519
 R591: - 13 x4,6_13 - p4 + p6 >= 0
 R592: 508 x4,6_13 - p4 + p6 <= 521
 R593: - 20 x4,6_20 - p4 + p6 >= 0
 R594: 508 x4,6_20 - p4 + p6 <= 528
 R595: - 24 x4,6_24 - p4 + p6 >= 0
 R596: 508 x4,6_24 - p4 + p6 <= 532
 R597: - 28 x4,6_28 - p4 + p6 >= 0
 R598: 508 x4,6_28 - p4 + p6 <= 536
 R599: - 33 x4,6_33 - p4 + p6 >= 0
 R600: 508 x4,6_33 - p4 + p6 <= 541
 R601: - 35 x4,6_35 - p4 + p6 >= 0
 R602: 508 x4,6_35 - p4 + p6 <= 543
 R603: - 37 x4,6_37 - p4 + p6 >= 0
 R604: 508 x4,6_37 - p4 + p6 <= 545
 R605: - 39 x4,6_39 - p4 + p6 >= 0
 R606: 508 x4,6_39 - p4 + p6 <= 547
 R607: - 48 x4,6_48 - p4 + p6 >= 0
 R608: 508 x4,6_48 - p4 + p6 <= 556
 R609: - 59 x4,6_59 - p4 + p6 >= 0
 R610: 508 x4,6_59 - p4 + p6 <= 567
 R611: - 61 x4,6_61 - p4 + p6 >= 0
 R612: 508 x4,6_61 - p4 + p6 <= 569
 R613: - 72 x4,6_72 - p4 + p6 >= 0
 R614: 508 x4,6_72 - p4 + p6 <= 580
 R615: p5 - p6 <= -1
 R616: - 4 x5,6_4 - p5 + p6 >= 0
 R617: 508 x5,6_4 - p5 + p6 <= 512
 R618: - 11 x5,6_11 - p5 + p6 >= 0
 R619: 508 x5,6_11 - p5 + p6 <= 519
 R620: - 13 x5,6_13 - p5 + p6 >= 0
 R621: 508 x5,6_13 - p5 + p6 <= 521
 R622: - 20 x5,6_20 - p5 + p6 >= 0
 R623: 508 x5,6_20 - p5 + p6 <= 528
 R624: - 24 x5,6_24 - p5 + p6 >= 0
 R625: 508 x5,6_24 - p5 + p6 <= 532
 R626: - 28 x5,6_28 - p5 + p6 >= 0
 R627: 508 x5,6_28 - p5 + p6 <= 536
 R628: - 33 x5,6_33 - p5 + p6 >= 0
 R629: 508 x5,6_33 - p5 + p6 <= 541
 R630: - 35 x5,6_35 - p5 + p6 >= 0
 R631: 508 x5,6_35 - p5 + p6 <= 543
 R632: - 37 x5,6_37 - p5 + p6 >= 0
 R633: 508 x5,6_37 - p5 + p6 <= 545
 R634: - 39 x5,6_39 - p5 + p6 >= 0
 R635: 508 x5,6_39 - p5 + p6 <= 547
 R636: - 48 x5,6_48 - p5 + p6 >= 0
 R637: 508 x5,6_48 - p5 + p6 <= 556
 R638: - 59 x5,6_59 - p5 + p6 >= 0
 R639: 508 x5,6_59 - p5 + p6 <= 567
 R640: - 61 x5,6_61 - p5 + p6 >= 0
 R641: 508 x5,6_61 - p5 + p6 <= 569
 R642: - 72 x5,6_72 - p5 + p6 >= 0
 R643: 508 x5,6_72 - p5 + p6 <= 580
Bounds
Binaries
 x0,1_4 x0,1_11 x0,1_13 x0,1_20 x0,1_24 x0,1_28 x0,1_33 x0,1_35 x0,1_37
 x0,1_39 x0,1_48 x0,1_59 x0,1_61 x0,1_72 x0,2_4 x0,2_11 x0,2_13 x0,2_20
 x0,2_24 x0,2_28 x0,2_33 x0,2_35 x0,2_37 x0,2_39 x0,2_48 x0,2_59 x0,2_61
 x0,2_72 x0,3_4 x0,3_11 x0,3_13 x0,3_20 x0,3_24 x0,3_28 x0,3_33 x0,3_35
 x0,3_37 x0,3_39 x0,3_48 x0,3_59 x0,3_61 x0,3_72 x0,4_4 x0,4_11 x0,4_13
 x0,4_20 x0,4_24 x0,4_28 x0,4_33 x0,4_35 x0,4_37 x0,4_39 x0,4_48 x0,4_59
 x0,4_61 x0,4_72 x0,5_4 x0,5_11 x0,5_13 x0,5_20 x0,5_24 x0,5_28 x0,5_33
 x0,5_35 x0,5_37 x0,5_39 x0,5_48 x0,5_59 x0,5_61 x0,5_72 x0,6_4 x0,6_11
 x0,6_13 x0,6_20 x0,6_24 x0,6_28 x0,6_33 x0,6_35 x0,6_37 x0,6_39 x0,6_48
 x0,6_59 x0,6_61 x0,6_72 x1,2_4 x1,2_11 x1,2_13 x1,2_20 x1,2_24 x1,2_28
 x1,2_33 x1,2_35 x1,2_37 x1,2_39 x1,2_48 x1,2_59 x1,2_61 x1,2_72 x1,3_4
 x1,3_11 x1,3_13 x1,3_20 x1,3_24 x1,3_28 x1,3_33 x1,3_35 x1,3_37 x1,3_39
 x1,3_48 x1,3_59 x1,3_61 x1,3_72 x1,4_4 x1,4_11 x1,4_13 x1,4_20 x1,4_24
 x1,4_28 x1,4_33 x1,4_35 x1,4_37 x1,4_39 x1,4_48 x1,4_59 x1,4_61 x1,4_72
 x1,5_4 x1,5_11 x1,5_13 x1,5_20 x1,5_24 x1,5_28 x1,5_33 x1,5_35 x1,5_37
 x1,5_39 x1,5_48 x1,5_59 x1,5_61 x1,5_72 x1,6_4 x1,6_11 x1,6_13 x1,6_20
 x1,6_24 x1,6_28 x1,6_33 x1,6_35 x1,6_37 x1,6_39 x1,6_48 x1,6_59 x1,6_61
 x1,6_72 x2,3_4 x2,3_11 x2,3_13 x2,3_20 x2,3_24 x2,3_28 x2,3_33 x2,3_35
 x2,3_37 x2,3_39 x2,3_48 x2,3_59 x2,3_61 x2,3_72 x2,4_4 x2,4_11 x2,4_13
 x2,4_20 x2,4_24 x2,4_28 x2,4_33 x2,4_35 x2,4_37 x2,4_39 x2,4_48 x2,4_59
 x2,4_61 x2,4_72 x2,5_4 x2,5_11 x2,5_13 x2,5_20 x2,5_24 x2,5_28 x2,5_33
 x2,5_35 x2,5_37 x2,5_39 x2,5_48 x2,5_59 x2,5_61 x2,5_72 x2,6_4 x2,6_11
 x2,6_13 x2,6_20 x2,6_24 x2,6_28 x2,6_33 x2,6_35 x2,6_37 x2,6_39 x2,6_48
 x2,6_59 x2,6_61 x2,6_72 x3,4_4 x3,4_11 x3,4_13 x3,4_20 x3,4_24 x3,4_28
 x3,4_33 x3,4_35 x3,4_37 x3,4_39 x3,4_48 x3,4_59 x3,4_61 x3,4_72 x3,5_4
 x3,5_11 x3,5_13 x3,5_20 x3,5_24 x3,5_28 x3,5_33 x3,5_35 x3,5_37 x3,5_39
 x3,5_48 x3,5_59 x3,5_61 x3,5_72 x3,6_4 x3,6_11 x3,6_13 x3,6_20 x3,6_24
 x3,6_28 x3,6_33 x3,6_35 x3,6_37 x3,6_39 x3,6_48 x3,6_59 x3,6_61 x3,6_72
 x4,5_4 x4,5_11 x4,5_13 x4,5_20 x4,5_24 x4,5_28 x4,5_33 x4,5_35 x4,5_37
 x4,5_39 x4,5_48 x4,5_59 x4,5_61 x4,5_72 x4,6_4 x4,6_11 x4,6_13 x4,6_20
 x4,6_24 x4,6_28 x4,6_33 x4,6_35 x4,6_37 x4,6_39 x4,6_48 x4,6_59 x4,6_61
 x4,6_72 x5,6_4 x5,6_11 x5,6_13 x5,6_20 x5,6_24 x5,6_28 x5,6_33 x5,6_35
 x5,6_37 x5,6_39 x5,6_48 x5,6_59 x5,6_61 x5,6_72
Generals
 p0 p1 p2 p3 p4 p5 p6
End
